<number of tasks>
20

<cycle time>
1000

<order strength>
0,511


<task times>
1 112
2 79
3 104
4 52
5 350
6 104
7 84
8 127
9 333
10 126
11 309
12 135
13 147
14 156
15 21
16 223
17 79
18 54
19 168
20 107

<precedence relations>
1,4
1,5
1,6
1,7
2,5
2,6
2,7
3,5
4,9
5,8
5,13
5,14
6,10
7,13
7,14
8,11
9,12
10,13
10,14
11,17
12,16
13,15
13,17
13,18
14,17
14,18
15,19
16,20
17,20
18,20

<end>
